100
32
19
2
15
6
26
9
14
11
17
26
9
9
9
17
18
7
2
4
4
3
1
1
1
4
1
3
1
18
2
2
4
2
4
5
17
1
1
2
5
2
19
3
19
2
3
5
2
1
1
3
1
1
1
17
17
1
6
1
1
1
4
1
2
1
2
2
19
16
2
4
1
19
1
1
1
1
4
1
1
4
5
1
2
5
3
1
2
2
1
3
1
2
2
1
2
2
2
2
2
1